NAME          transport
ROWS
 N  obj     
 E  e1      
 L  e2      
 L  e3      
 G  e4      
 G  e5      
 G  e6      
COLUMNS
    x1        e1              -0.225
    x1        e2                   1
    x1        e4                   1
    x2        e1              -0.153
    x2        e2                   1
    x2        e5                   1
    x3        e1              -0.162
    x3        e2                   1
    x3        e6                   1
    x4        e1              -0.225
    x4        e3                   1
    x4        e4                   1
    x5        e1              -0.162
    x5        e3                   1
    x5        e5                   1
    x6        e1              -0.126
    x6        e3                   1
    x6        e6                   1
    x7        obj                  1
    x7        e1                   1
RHS
    rhs       e2                 350
    rhs       e3                 600
    rhs       e4                 325
    rhs       e5                 300
    rhs       e6                 275
BOUNDS
 FR bnd       x7      
ENDATA
